instances/shortest_path/discrete_knapsack_uncertainty/nohadani_7_11.lp
\ Model nohadani_7_11
\ LP format - for model browsing. Use MPS format to capture full model detail.
\ Signature: 0x917f322750627386
Minimize
  62.03224967708329 y[0,2] + 60.10823570859488 y[0,4]
   + 43.46262762420146 y[0,6] + 38.47076812334269 y[1,3]
   + 44.77722635447622 y[1,4] + 12.16552506059644 y[1,5]
   + 68.70953354520753 y[1,6] + 62.03224967708329 y[2,0]
   + 41.10960958218893 y[2,3] + 44.28317965096906 y[2,4]
   + 67.00746227100382 y[2,5] + 26.6270539113887 y[2,6]
   + 38.47076812334269 y[3,1] + 41.10960958218893 y[3,2]
   + 16.0312195418814 y[3,4] + 26.30589287593181 y[3,5]
   + 32.20248437620923 y[3,6] + 60.10823570859488 y[4,0]
   + 44.77722635447622 y[4,1] + 44.28317965096906 y[4,2]
   + 16.0312195418814 y[4,3] + 33.60059523282288 y[4,5]
   + 25.17935662402834 y[4,6] + 12.16552506059644 y[5,1]
   + 67.00746227100382 y[5,2] + 26.30589287593181 y[5,3]
   + 33.60059523282288 y[5,4] + 56.859475903318 y[5,6]
   + 43.46262762420146 y[6,0] + 68.70953354520753 y[6,1]
   + 26.6270539113887 y[6,2] + 32.20248437620923 y[6,3]
   + 25.17935662402834 y[6,4] + 56.859475903318 y[6,5] + x[0,2] + x[0,4]
   + x[0,6] + x[1,3] + x[1,4] + x[1,5] + x[1,6] + x[2,0] + x[2,3] + x[2,4]
   + x[2,5] + x[2,6] + x[3,1] + x[3,2] + x[3,4] + x[3,5] + x[3,6] + x[4,0]
   + x[4,1] + x[4,2] + x[4,3] + x[4,5] + x[4,6] + x[5,1] + x[5,2] + x[5,3]
   + x[5,4] + x[5,6] + x[6,0] + x[6,1] + x[6,2] + x[6,3] + x[6,4] + x[6,5]
   + 6.20322496770833 r[0,2] + 6.010823570859488 r[0,4]
   + 4.346262762420146 r[0,6] + 3.847076812334269 r[1,3]
   + 4.477722635447623 r[1,4] + 1.216552506059644 r[1,5]
   + 6.870953354520754 r[1,6] + 6.20322496770833 r[2,0]
   + 4.110960958218893 r[2,3] + 4.428317965096906 r[2,4]
   + 6.700746227100382 r[2,5] + 2.66270539113887 r[2,6]
   + 3.847076812334269 r[3,1] + 4.110960958218893 r[3,2]
   + 1.60312195418814 r[3,4] + 2.630589287593181 r[3,5]
   + 3.220248437620924 r[3,6] + 6.010823570859488 r[4,0]
   + 4.477722635447623 r[4,1] + 4.428317965096906 r[4,2]
   + 1.60312195418814 r[4,3] + 3.360059523282288 r[4,5]
   + 2.517935662402834 r[4,6] + 1.216552506059644 r[5,1]
   + 6.700746227100382 r[5,2] + 2.630589287593181 r[5,3]
   + 3.360059523282288 r[5,4] + 5.6859475903318 r[5,6]
   + 4.346262762420146 r[6,0] + 6.870953354520754 r[6,1]
   + 2.66270539113887 r[6,2] + 3.220248437620924 r[6,3]
   + 2.517935662402834 r[6,4] + 5.6859475903318 r[6,5]
Subject To
 flow_cons_inner_nodes[2]: y[0,2] - y[2,0] - y[2,3] - y[2,4] - y[2,5]
   - y[2,6] + y[3,2] + y[4,2] + y[5,2] + y[6,2] = 0
 flow_cons_inner_nodes[3]: y[1,3] + y[2,3] - y[3,1] - y[3,2] - y[3,4]
   - y[3,5] - y[3,6] + y[4,3] + y[5,3] + y[6,3] = 0
 flow_cons_inner_nodes[4]: y[0,4] + y[1,4] + y[2,4] + y[3,4] - y[4,0]
   - y[4,1] - y[4,2] - y[4,3] - y[4,5] - y[4,6] + y[5,4] + y[6,4] = 0
 flow_cons_inner_nodes[5]: y[1,5] + y[2,5] + y[3,5] + y[4,5] - y[5,1]
   - y[5,2] - y[5,3] - y[5,4] - y[5,6] + y[6,5] = 0
 flow_cons_inner_nodes[6]: y[0,6] + y[1,6] + y[2,6] + y[3,6] + y[4,6]
   + y[5,6] - y[6,0] - y[6,1] - y[6,2] - y[6,3] - y[6,4] - y[6,5] = 0
 flow_cons_source: y[0,2] + y[0,4] + y[0,6] - y[2,0] - y[4,0] - y[6,0] = 1
 flow_cons_target: - y[1,3] - y[1,4] - y[1,5] - y[1,6] + y[3,1] + y[4,1]
   + y[5,1] + y[6,1] = 1
 primal_lower: 3.864057671308548 x[0,2] + 2.128855812887947 x[0,4]
   + 2.971054659966511 x[0,6] + 0.5585468042462712 x[1,3]
   + 3.365089713574328 x[1,4] + 0.9518591363951727 x[1,5]
   + 2.677788155883928 x[1,6] + 1.695700764722775 x[2,0]
   + 3.574486052642247 x[2,3] + 0.6913271715127617 x[2,4]
   + 0.7929094790012261 x[2,5] + 3.080388028870457 x[2,6]
   + 0.5154765551919743 x[3,1] + 0.7340921433546135 x[3,2]
   + 3.266757092964993 x[3,4] + 0.6097753061595417 x[3,5]
   + 3.067069451076287 x[3,6] + 1.640095944601739 x[4,0]
   + 3.172838806479432 x[4,1] + 0.1915796133169653 x[4,2]
   + 0.7922996040260433 x[4,3] + 1.671800325595725 x[4,5]
   + 2.037301902554024 x[4,6] + 0.5729425163623758 x[5,1]
   + 0.4168700444613539 x[5,2] + 3.051683371760944 x[5,3]
   + 0.0363792806805464 x[5,4] + 3.262646683714868 x[5,6]
   + 3.028396482918563 x[6,0] + 0.683602178071044 x[6,1]
   + 2.533890621539549 x[6,2] + 0.650164677372254 x[6,3]
   + 3.683789305920384 x[6,4] + 0.8411318746557646 x[6,5] + 97 u[0,2]
   + 2 u[0,4] + 44 u[0,6] + 65 u[1,3] + 78 u[1,4] + 23 u[1,5] + 11 u[1,6]
   + 57 u[2,0] + 55 u[2,3] + 36 u[2,4] + 17 u[2,5] + 33 u[2,6] + 74 u[3,1]
   + 14 u[3,2] + 14 u[3,4] + 98 u[3,5] + 39 u[3,6] + 58 u[4,0] + 47 u[4,1]
   + 80 u[4,2] + 71 u[4,3] + 97 u[4,5] + 18 u[4,6] + 40 u[5,1] + 98 u[5,2]
   + 46 u[5,3] + 8 u[5,4] + 9 u[5,6] + 31 u[6,0] + 45 u[6,1] + 83 u[6,2]
   + 45 u[6,3] + 17 u[6,4] + 47 u[6,5] <= 145
 mccormick1[0,2]: - u[0,2] + r[0,2] <= 0
 mccormick1[0,4]: - u[0,4] + r[0,4] <= 0
 mccormick1[0,6]: - u[0,6] + r[0,6] <= 0
 mccormick1[1,3]: - u[1,3] + r[1,3] <= 0
 mccormick1[1,4]: - u[1,4] + r[1,4] <= 0
 mccormick1[1,5]: - u[1,5] + r[1,5] <= 0
 mccormick1[1,6]: - u[1,6] + r[1,6] <= 0
 mccormick1[2,0]: - u[2,0] + r[2,0] <= 0
 mccormick1[2,3]: - u[2,3] + r[2,3] <= 0
 mccormick1[2,4]: - u[2,4] + r[2,4] <= 0
 mccormick1[2,5]: - u[2,5] + r[2,5] <= 0
 mccormick1[2,6]: - u[2,6] + r[2,6] <= 0
 mccormick1[3,1]: - u[3,1] + r[3,1] <= 0
 mccormick1[3,2]: - u[3,2] + r[3,2] <= 0
 mccormick1[3,4]: - u[3,4] + r[3,4] <= 0
 mccormick1[3,5]: - u[3,5] + r[3,5] <= 0
 mccormick1[3,6]: - u[3,6] + r[3,6] <= 0
 mccormick1[4,0]: - u[4,0] + r[4,0] <= 0
 mccormick1[4,1]: - u[4,1] + r[4,1] <= 0
 mccormick1[4,2]: - u[4,2] + r[4,2] <= 0
 mccormick1[4,3]: - u[4,3] + r[4,3] <= 0
 mccormick1[4,5]: - u[4,5] + r[4,5] <= 0
 mccormick1[4,6]: - u[4,6] + r[4,6] <= 0
 mccormick1[5,1]: - u[5,1] + r[5,1] <= 0
 mccormick1[5,2]: - u[5,2] + r[5,2] <= 0
 mccormick1[5,3]: - u[5,3] + r[5,3] <= 0
 mccormick1[5,4]: - u[5,4] + r[5,4] <= 0
 mccormick1[5,6]: - u[5,6] + r[5,6] <= 0
 mccormick1[6,0]: - u[6,0] + r[6,0] <= 0
 mccormick1[6,1]: - u[6,1] + r[6,1] <= 0
 mccormick1[6,2]: - u[6,2] + r[6,2] <= 0
 mccormick1[6,3]: - u[6,3] + r[6,3] <= 0
 mccormick1[6,4]: - u[6,4] + r[6,4] <= 0
 mccormick1[6,5]: - u[6,5] + r[6,5] <= 0
 mccormick2[0,2]: - y[0,2] + r[0,2] <= 0
 mccormick2[0,4]: - y[0,4] + r[0,4] <= 0
 mccormick2[0,6]: - y[0,6] + r[0,6] <= 0
 mccormick2[1,3]: - y[1,3] + r[1,3] <= 0
 mccormick2[1,4]: - y[1,4] + r[1,4] <= 0
 mccormick2[1,5]: - y[1,5] + r[1,5] <= 0
 mccormick2[1,6]: - y[1,6] + r[1,6] <= 0
 mccormick2[2,0]: - y[2,0] + r[2,0] <= 0
 mccormick2[2,3]: - y[2,3] + r[2,3] <= 0
 mccormick2[2,4]: - y[2,4] + r[2,4] <= 0
 mccormick2[2,5]: - y[2,5] + r[2,5] <= 0
 mccormick2[2,6]: - y[2,6] + r[2,6] <= 0
 mccormick2[3,1]: - y[3,1] + r[3,1] <= 0
 mccormick2[3,2]: - y[3,2] + r[3,2] <= 0
 mccormick2[3,4]: - y[3,4] + r[3,4] <= 0
 mccormick2[3,5]: - y[3,5] + r[3,5] <= 0
 mccormick2[3,6]: - y[3,6] + r[3,6] <= 0
 mccormick2[4,0]: - y[4,0] + r[4,0] <= 0
 mccormick2[4,1]: - y[4,1] + r[4,1] <= 0
 mccormick2[4,2]: - y[4,2] + r[4,2] <= 0
 mccormick2[4,3]: - y[4,3] + r[4,3] <= 0
 mccormick2[4,5]: - y[4,5] + r[4,5] <= 0
 mccormick2[4,6]: - y[4,6] + r[4,6] <= 0
 mccormick2[5,1]: - y[5,1] + r[5,1] <= 0
 mccormick2[5,2]: - y[5,2] + r[5,2] <= 0
 mccormick2[5,3]: - y[5,3] + r[5,3] <= 0
 mccormick2[5,4]: - y[5,4] + r[5,4] <= 0
 mccormick2[5,6]: - y[5,6] + r[5,6] <= 0
 mccormick2[6,0]: - y[6,0] + r[6,0] <= 0
 mccormick2[6,1]: - y[6,1] + r[6,1] <= 0
 mccormick2[6,2]: - y[6,2] + r[6,2] <= 0
 mccormick2[6,3]: - y[6,3] + r[6,3] <= 0
 mccormick2[6,4]: - y[6,4] + r[6,4] <= 0
 mccormick2[6,5]: - y[6,5] + r[6,5] <= 0
 mccormick3[0,2]: - y[0,2] - u[0,2] + r[0,2] >= -1
 mccormick3[0,4]: - y[0,4] - u[0,4] + r[0,4] >= -1
 mccormick3[0,6]: - y[0,6] - u[0,6] + r[0,6] >= -1
 mccormick3[1,3]: - y[1,3] - u[1,3] + r[1,3] >= -1
 mccormick3[1,4]: - y[1,4] - u[1,4] + r[1,4] >= -1
 mccormick3[1,5]: - y[1,5] - u[1,5] + r[1,5] >= -1
 mccormick3[1,6]: - y[1,6] - u[1,6] + r[1,6] >= -1
 mccormick3[2,0]: - y[2,0] - u[2,0] + r[2,0] >= -1
 mccormick3[2,3]: - y[2,3] - u[2,3] + r[2,3] >= -1
 mccormick3[2,4]: - y[2,4] - u[2,4] + r[2,4] >= -1
 mccormick3[2,5]: - y[2,5] - u[2,5] + r[2,5] >= -1
 mccormick3[2,6]: - y[2,6] - u[2,6] + r[2,6] >= -1
 mccormick3[3,1]: - y[3,1] - u[3,1] + r[3,1] >= -1
 mccormick3[3,2]: - y[3,2] - u[3,2] + r[3,2] >= -1
 mccormick3[3,4]: - y[3,4] - u[3,4] + r[3,4] >= -1
 mccormick3[3,5]: - y[3,5] - u[3,5] + r[3,5] >= -1
 mccormick3[3,6]: - y[3,6] - u[3,6] + r[3,6] >= -1
 mccormick3[4,0]: - y[4,0] - u[4,0] + r[4,0] >= -1
 mccormick3[4,1]: - y[4,1] - u[4,1] + r[4,1] >= -1
 mccormick3[4,2]: - y[4,2] - u[4,2] + r[4,2] >= -1
 mccormick3[4,3]: - y[4,3] - u[4,3] + r[4,3] >= -1
 mccormick3[4,5]: - y[4,5] - u[4,5] + r[4,5] >= -1
 mccormick3[4,6]: - y[4,6] - u[4,6] + r[4,6] >= -1
 mccormick3[5,1]: - y[5,1] - u[5,1] + r[5,1] >= -1
 mccormick3[5,2]: - y[5,2] - u[5,2] + r[5,2] >= -1
 mccormick3[5,3]: - y[5,3] - u[5,3] + r[5,3] >= -1
 mccormick3[5,4]: - y[5,4] - u[5,4] + r[5,4] >= -1
 mccormick3[5,6]: - y[5,6] - u[5,6] + r[5,6] >= -1
 mccormick3[6,0]: - y[6,0] - u[6,0] + r[6,0] >= -1
 mccormick3[6,1]: - y[6,1] - u[6,1] + r[6,1] >= -1
 mccormick3[6,2]: - y[6,2] - u[6,2] + r[6,2] >= -1
 mccormick3[6,3]: - y[6,3] - u[6,3] + r[6,3] >= -1
 mccormick3[6,4]: - y[6,4] - u[6,4] + r[6,4] >= -1
 mccormick3[6,5]: - y[6,5] - u[6,5] + r[6,5] >= -1
Bounds
Binaries
 y[0,2] y[0,4] y[0,6] y[1,3] y[1,4] y[1,5] y[1,6] y[2,0] y[2,3] y[2,4]
 y[2,5] y[2,6] y[3,1] y[3,2] y[3,4] y[3,5] y[3,6] y[4,0] y[4,1] y[4,2]
 y[4,3] y[4,5] y[4,6] y[5,1] y[5,2] y[5,3] y[5,4] y[5,6] y[6,0] y[6,1]
 y[6,2] y[6,3] y[6,4] y[6,5] x[0,2] x[0,4] x[0,6] x[1,3] x[1,4] x[1,5]
 x[1,6] x[2,0] x[2,3] x[2,4] x[2,5] x[2,6] x[3,1] x[3,2] x[3,4] x[3,5]
 x[3,6] x[4,0] x[4,1] x[4,2] x[4,3] x[4,5] x[4,6] x[5,1] x[5,2] x[5,3]
 x[5,4] x[5,6] x[6,0] x[6,1] x[6,2] x[6,3] x[6,4] x[6,5] u[0,2] u[0,4]
 u[0,6] u[1,3] u[1,4] u[1,5] u[1,6] u[2,0] u[2,3] u[2,4] u[2,5] u[2,6]
 u[3,1] u[3,2] u[3,4] u[3,5] u[3,6] u[4,0] u[4,1] u[4,2] u[4,3] u[4,5]
 u[4,6] u[5,1] u[5,2] u[5,3] u[5,4] u[5,6] u[6,0] u[6,1] u[6,2] u[6,3]
 u[6,4] u[6,5] r[0,2] r[0,4] r[0,6] r[1,3] r[1,4] r[1,5] r[1,6] r[2,0]
 r[2,3] r[2,4] r[2,5] r[2,6] r[3,1] r[3,2] r[3,4] r[3,5] r[3,6] r[4,0]
 r[4,1] r[4,2] r[4,3] r[4,5] r[4,6] r[5,1] r[5,2] r[5,3] r[5,4] r[5,6]
 r[6,0] r[6,1] r[6,2] r[6,3] r[6,4] r[6,5]
End
