instances/shortest_path/discrete_knapsack_uncertainty/nohadani_7_11.mps
* Signature: 0x917f322750627386
NAME nohadani_7_11
ROWS
 N  OBJ
 E  flow_cons_inner_nodes[2]
 E  flow_cons_inner_nodes[3]
 E  flow_cons_inner_nodes[4]
 E  flow_cons_inner_nodes[5]
 E  flow_cons_inner_nodes[6]
 E  flow_cons_source
 E  flow_cons_target
 L  primal_lower
 L  mccormick1[0,2]
 L  mccormick1[0,4]
 L  mccormick1[0,6]
 L  mccormick1[1,3]
 L  mccormick1[1,4]
 L  mccormick1[1,5]
 L  mccormick1[1,6]
 L  mccormick1[2,0]
 L  mccormick1[2,3]
 L  mccormick1[2,4]
 L  mccormick1[2,5]
 L  mccormick1[2,6]
 L  mccormick1[3,1]
 L  mccormick1[3,2]
 L  mccormick1[3,4]
 L  mccormick1[3,5]
 L  mccormick1[3,6]
 L  mccormick1[4,0]
 L  mccormick1[4,1]
 L  mccormick1[4,2]
 L  mccormick1[4,3]
 L  mccormick1[4,5]
 L  mccormick1[4,6]
 L  mccormick1[5,1]
 L  mccormick1[5,2]
 L  mccormick1[5,3]
 L  mccormick1[5,4]
 L  mccormick1[5,6]
 L  mccormick1[6,0]
 L  mccormick1[6,1]
 L  mccormick1[6,2]
 L  mccormick1[6,3]
 L  mccormick1[6,4]
 L  mccormick1[6,5]
 L  mccormick2[0,2]
 L  mccormick2[0,4]
 L  mccormick2[0,6]
 L  mccormick2[1,3]
 L  mccormick2[1,4]
 L  mccormick2[1,5]
 L  mccormick2[1,6]
 L  mccormick2[2,0]
 L  mccormick2[2,3]
 L  mccormick2[2,4]
 L  mccormick2[2,5]
 L  mccormick2[2,6]
 L  mccormick2[3,1]
 L  mccormick2[3,2]
 L  mccormick2[3,4]
 L  mccormick2[3,5]
 L  mccormick2[3,6]
 L  mccormick2[4,0]
 L  mccormick2[4,1]
 L  mccormick2[4,2]
 L  mccormick2[4,3]
 L  mccormick2[4,5]
 L  mccormick2[4,6]
 L  mccormick2[5,1]
 L  mccormick2[5,2]
 L  mccormick2[5,3]
 L  mccormick2[5,4]
 L  mccormick2[5,6]
 L  mccormick2[6,0]
 L  mccormick2[6,1]
 L  mccormick2[6,2]
 L  mccormick2[6,3]
 L  mccormick2[6,4]
 L  mccormick2[6,5]
 G  mccormick3[0,2]
 G  mccormick3[0,4]
 G  mccormick3[0,6]
 G  mccormick3[1,3]
 G  mccormick3[1,4]
 G  mccormick3[1,5]
 G  mccormick3[1,6]
 G  mccormick3[2,0]
 G  mccormick3[2,3]
 G  mccormick3[2,4]
 G  mccormick3[2,5]
 G  mccormick3[2,6]
 G  mccormick3[3,1]
 G  mccormick3[3,2]
 G  mccormick3[3,4]
 G  mccormick3[3,5]
 G  mccormick3[3,6]
 G  mccormick3[4,0]
 G  mccormick3[4,1]
 G  mccormick3[4,2]
 G  mccormick3[4,3]
 G  mccormick3[4,5]
 G  mccormick3[4,6]
 G  mccormick3[5,1]
 G  mccormick3[5,2]
 G  mccormick3[5,3]
 G  mccormick3[5,4]
 G  mccormick3[5,6]
 G  mccormick3[6,0]
 G  mccormick3[6,1]
 G  mccormick3[6,2]
 G  mccormick3[6,3]
 G  mccormick3[6,4]
 G  mccormick3[6,5]
COLUMNS
    MARKER    'MARKER'                 'INTORG'
    y[0,2]    OBJ       6.2032249677083293e+01
    y[0,2]    flow_cons_inner_nodes[2]  1
    y[0,2]    flow_cons_source  1
    y[0,2]    mccormick2[0,2]  -1
    y[0,2]    mccormick3[0,2]  -1
    y[0,4]    OBJ       6.0108235708594876e+01
    y[0,4]    flow_cons_inner_nodes[4]  1
    y[0,4]    flow_cons_source  1
    y[0,4]    mccormick2[0,4]  -1
    y[0,4]    mccormick3[0,4]  -1
    y[0,6]    OBJ       4.3462627624201460e+01
    y[0,6]    flow_cons_inner_nodes[6]  1
    y[0,6]    flow_cons_source  1
    y[0,6]    mccormick2[0,6]  -1
    y[0,6]    mccormick3[0,6]  -1
    y[1,3]    OBJ       3.8470768123342687e+01
    y[1,3]    flow_cons_inner_nodes[3]  1
    y[1,3]    flow_cons_target  -1
    y[1,3]    mccormick2[1,3]  -1
    y[1,3]    mccormick3[1,3]  -1
    y[1,4]    OBJ       4.4777226354476220e+01
    y[1,4]    flow_cons_inner_nodes[4]  1
    y[1,4]    flow_cons_target  -1
    y[1,4]    mccormick2[1,4]  -1
    y[1,4]    mccormick3[1,4]  -1
    y[1,5]    OBJ       1.2165525060596439e+01
    y[1,5]    flow_cons_inner_nodes[5]  1
    y[1,5]    flow_cons_target  -1
    y[1,5]    mccormick2[1,5]  -1
    y[1,5]    mccormick3[1,5]  -1
    y[1,6]    OBJ       6.8709533545207535e+01
    y[1,6]    flow_cons_inner_nodes[6]  1
    y[1,6]    flow_cons_target  -1
    y[1,6]    mccormick2[1,6]  -1
    y[1,6]    mccormick3[1,6]  -1
    y[2,0]    OBJ       6.2032249677083293e+01
    y[2,0]    flow_cons_inner_nodes[2]  -1
    y[2,0]    flow_cons_source  -1
    y[2,0]    mccormick2[2,0]  -1
    y[2,0]    mccormick3[2,0]  -1
    y[2,3]    OBJ       4.1109609582188931e+01
    y[2,3]    flow_cons_inner_nodes[2]  -1
    y[2,3]    flow_cons_inner_nodes[3]  1
    y[2,3]    mccormick2[2,3]  -1
    y[2,3]    mccormick3[2,3]  -1
    y[2,4]    OBJ       4.4283179650969061e+01
    y[2,4]    flow_cons_inner_nodes[2]  -1
    y[2,4]    flow_cons_inner_nodes[4]  1
    y[2,4]    mccormick2[2,4]  -1
    y[2,4]    mccormick3[2,4]  -1
    y[2,5]    OBJ       6.7007462271003817e+01
    y[2,5]    flow_cons_inner_nodes[2]  -1
    y[2,5]    flow_cons_inner_nodes[5]  1
    y[2,5]    mccormick2[2,5]  -1
    y[2,5]    mccormick3[2,5]  -1
    y[2,6]    OBJ       2.6627053911388696e+01
    y[2,6]    flow_cons_inner_nodes[2]  -1
    y[2,6]    flow_cons_inner_nodes[6]  1
    y[2,6]    mccormick2[2,6]  -1
    y[2,6]    mccormick3[2,6]  -1
    y[3,1]    OBJ       3.8470768123342687e+01
    y[3,1]    flow_cons_inner_nodes[3]  -1
    y[3,1]    flow_cons_target  1
    y[3,1]    mccormick2[3,1]  -1
    y[3,1]    mccormick3[3,1]  -1
    y[3,2]    OBJ       4.1109609582188931e+01
    y[3,2]    flow_cons_inner_nodes[2]  1
    y[3,2]    flow_cons_inner_nodes[3]  -1
    y[3,2]    mccormick2[3,2]  -1
    y[3,2]    mccormick3[3,2]  -1
    y[3,4]    OBJ       16.0312195418814
    y[3,4]    flow_cons_inner_nodes[3]  -1
    y[3,4]    flow_cons_inner_nodes[4]  1
    y[3,4]    mccormick2[3,4]  -1
    y[3,4]    mccormick3[3,4]  -1
    y[3,5]    OBJ       2.6305892875931811e+01
    y[3,5]    flow_cons_inner_nodes[3]  -1
    y[3,5]    flow_cons_inner_nodes[5]  1
    y[3,5]    mccormick2[3,5]  -1
    y[3,5]    mccormick3[3,5]  -1
    y[3,6]    OBJ       3.2202484376209235e+01
    y[3,6]    flow_cons_inner_nodes[3]  -1
    y[3,6]    flow_cons_inner_nodes[6]  1
    y[3,6]    mccormick2[3,6]  -1
    y[3,6]    mccormick3[3,6]  -1
    y[4,0]    OBJ       6.0108235708594876e+01
    y[4,0]    flow_cons_inner_nodes[4]  -1
    y[4,0]    flow_cons_source  -1
    y[4,0]    mccormick2[4,0]  -1
    y[4,0]    mccormick3[4,0]  -1
    y[4,1]    OBJ       4.4777226354476220e+01
    y[4,1]    flow_cons_inner_nodes[4]  -1
    y[4,1]    flow_cons_target  1
    y[4,1]    mccormick2[4,1]  -1
    y[4,1]    mccormick3[4,1]  -1
    y[4,2]    OBJ       4.4283179650969061e+01
    y[4,2]    flow_cons_inner_nodes[2]  1
    y[4,2]    flow_cons_inner_nodes[4]  -1
    y[4,2]    mccormick2[4,2]  -1
    y[4,2]    mccormick3[4,2]  -1
    y[4,3]    OBJ       16.0312195418814
    y[4,3]    flow_cons_inner_nodes[3]  1
    y[4,3]    flow_cons_inner_nodes[4]  -1
    y[4,3]    mccormick2[4,3]  -1
    y[4,3]    mccormick3[4,3]  -1
    y[4,5]    OBJ       3.3600595232822883e+01
    y[4,5]    flow_cons_inner_nodes[4]  -1
    y[4,5]    flow_cons_inner_nodes[5]  1
    y[4,5]    mccormick2[4,5]  -1
    y[4,5]    mccormick3[4,5]  -1
    y[4,6]    OBJ       2.5179356624028344e+01
    y[4,6]    flow_cons_inner_nodes[4]  -1
    y[4,6]    flow_cons_inner_nodes[6]  1
    y[4,6]    mccormick2[4,6]  -1
    y[4,6]    mccormick3[4,6]  -1
    y[5,1]    OBJ       1.2165525060596439e+01
    y[5,1]    flow_cons_inner_nodes[5]  -1
    y[5,1]    flow_cons_target  1
    y[5,1]    mccormick2[5,1]  -1
    y[5,1]    mccormick3[5,1]  -1
    y[5,2]    OBJ       6.7007462271003817e+01
    y[5,2]    flow_cons_inner_nodes[2]  1
    y[5,2]    flow_cons_inner_nodes[5]  -1
    y[5,2]    mccormick2[5,2]  -1
    y[5,2]    mccormick3[5,2]  -1
    y[5,3]    OBJ       2.6305892875931811e+01
    y[5,3]    flow_cons_inner_nodes[3]  1
    y[5,3]    flow_cons_inner_nodes[5]  -1
    y[5,3]    mccormick2[5,3]  -1
    y[5,3]    mccormick3[5,3]  -1
    y[5,4]    OBJ       3.3600595232822883e+01
    y[5,4]    flow_cons_inner_nodes[4]  1
    y[5,4]    flow_cons_inner_nodes[5]  -1
    y[5,4]    mccormick2[5,4]  -1
    y[5,4]    mccormick3[5,4]  -1
    y[5,6]    OBJ       56.859475903318
    y[5,6]    flow_cons_inner_nodes[5]  -1
    y[5,6]    flow_cons_inner_nodes[6]  1
    y[5,6]    mccormick2[5,6]  -1
    y[5,6]    mccormick3[5,6]  -1
    y[6,0]    OBJ       4.3462627624201460e+01
    y[6,0]    flow_cons_inner_nodes[6]  -1
    y[6,0]    flow_cons_source  -1
    y[6,0]    mccormick2[6,0]  -1
    y[6,0]    mccormick3[6,0]  -1
    y[6,1]    OBJ       6.8709533545207535e+01
    y[6,1]    flow_cons_inner_nodes[6]  -1
    y[6,1]    flow_cons_target  1
    y[6,1]    mccormick2[6,1]  -1
    y[6,1]    mccormick3[6,1]  -1
    y[6,2]    OBJ       2.6627053911388696e+01
    y[6,2]    flow_cons_inner_nodes[2]  1
    y[6,2]    flow_cons_inner_nodes[6]  -1
    y[6,2]    mccormick2[6,2]  -1
    y[6,2]    mccormick3[6,2]  -1
    y[6,3]    OBJ       3.2202484376209235e+01
    y[6,3]    flow_cons_inner_nodes[3]  1
    y[6,3]    flow_cons_inner_nodes[6]  -1
    y[6,3]    mccormick2[6,3]  -1
    y[6,3]    mccormick3[6,3]  -1
    y[6,4]    OBJ       2.5179356624028344e+01
    y[6,4]    flow_cons_inner_nodes[4]  1
    y[6,4]    flow_cons_inner_nodes[6]  -1
    y[6,4]    mccormick2[6,4]  -1
    y[6,4]    mccormick3[6,4]  -1
    y[6,5]    OBJ       56.859475903318
    y[6,5]    flow_cons_inner_nodes[5]  1
    y[6,5]    flow_cons_inner_nodes[6]  -1
    y[6,5]    mccormick2[6,5]  -1
    y[6,5]    mccormick3[6,5]  -1
    x[0,2]    OBJ       1
    x[0,2]    primal_lower  3.8640576713085482e+00
    x[0,4]    OBJ       1
    x[0,4]    primal_lower  2.1288558128879469e+00
    x[0,6]    OBJ       1
    x[0,6]    primal_lower  2.9710546599665113e+00
    x[1,3]    OBJ       1
    x[1,3]    primal_lower  5.5854680424627123e-01
    x[1,4]    OBJ       1
    x[1,4]    primal_lower  3.3650897135743278e+00
    x[1,5]    OBJ       1
    x[1,5]    primal_lower  9.5185913639517272e-01
    x[1,6]    OBJ       1
    x[1,6]    primal_lower  2.6777881558839276e+00
    x[2,0]    OBJ       1
    x[2,0]    primal_lower  1.6957007647227749e+00
    x[2,3]    OBJ       1
    x[2,3]    primal_lower  3.5744860526422473e+00
    x[2,4]    OBJ       1
    x[2,4]    primal_lower  6.9132717151276168e-01
    x[2,5]    OBJ       1
    x[2,5]    primal_lower  7.9290947900122610e-01
    x[2,6]    OBJ       1
    x[2,6]    primal_lower  3.0803880288704568e+00
    x[3,1]    OBJ       1
    x[3,1]    primal_lower  5.1547655519197433e-01
    x[3,2]    OBJ       1
    x[3,2]    primal_lower  7.3409214335461348e-01
    x[3,4]    OBJ       1
    x[3,4]    primal_lower  3.2667570929649927e+00
    x[3,5]    OBJ       1
    x[3,5]    primal_lower  6.0977530615954167e-01
    x[3,6]    OBJ       1
    x[3,6]    primal_lower  3.0670694510762875e+00
    x[4,0]    OBJ       1
    x[4,0]    primal_lower  1.6400959446017391e+00
    x[4,1]    OBJ       1
    x[4,1]    primal_lower  3.1728388064794317e+00
    x[4,2]    OBJ       1
    x[4,2]    primal_lower  1.9157961331696527e-01
    x[4,3]    OBJ       1
    x[4,3]    primal_lower  7.9229960402604327e-01
    x[4,5]    OBJ       1
    x[4,5]    primal_lower  1.6718003255957248e+00
    x[4,6]    OBJ       1
    x[4,6]    primal_lower  2.0373019025540238e+00
    x[5,1]    OBJ       1
    x[5,1]    primal_lower  5.7294251636237581e-01
    x[5,2]    OBJ       1
    x[5,2]    primal_lower  4.1687004446135389e-01
    x[5,3]    OBJ       1
    x[5,3]    primal_lower  3.0516833717609440e+00
    x[5,4]    OBJ       1
    x[5,4]    primal_lower  3.6379280680546446e-02
    x[5,6]    OBJ       1
    x[5,6]    primal_lower  3.2626466837148684e+00
    x[6,0]    OBJ       1
    x[6,0]    primal_lower  3.0283964829185632e+00
    x[6,1]    OBJ       1
    x[6,1]    primal_lower  0.683602178071044
    x[6,2]    OBJ       1
    x[6,2]    primal_lower  2.5338906215395491e+00
    x[6,3]    OBJ       1
    x[6,3]    primal_lower  0.650164677372254
    x[6,4]    OBJ       1
    x[6,4]    primal_lower  3.6837893059203841e+00
    x[6,5]    OBJ       1
    x[6,5]    primal_lower  8.4113187465576456e-01
    u[0,2]    primal_lower  97
    u[0,2]    mccormick1[0,2]  -1
    u[0,2]    mccormick3[0,2]  -1
    u[0,4]    primal_lower  2
    u[0,4]    mccormick1[0,4]  -1
    u[0,4]    mccormick3[0,4]  -1
    u[0,6]    primal_lower  44
    u[0,6]    mccormick1[0,6]  -1
    u[0,6]    mccormick3[0,6]  -1
    u[1,3]    primal_lower  65
    u[1,3]    mccormick1[1,3]  -1
    u[1,3]    mccormick3[1,3]  -1
    u[1,4]    primal_lower  78
    u[1,4]    mccormick1[1,4]  -1
    u[1,4]    mccormick3[1,4]  -1
    u[1,5]    primal_lower  23
    u[1,5]    mccormick1[1,5]  -1
    u[1,5]    mccormick3[1,5]  -1
    u[1,6]    primal_lower  11
    u[1,6]    mccormick1[1,6]  -1
    u[1,6]    mccormick3[1,6]  -1
    u[2,0]    primal_lower  57
    u[2,0]    mccormick1[2,0]  -1
    u[2,0]    mccormick3[2,0]  -1
    u[2,3]    primal_lower  55
    u[2,3]    mccormick1[2,3]  -1
    u[2,3]    mccormick3[2,3]  -1
    u[2,4]    primal_lower  36
    u[2,4]    mccormick1[2,4]  -1
    u[2,4]    mccormick3[2,4]  -1
    u[2,5]    primal_lower  17
    u[2,5]    mccormick1[2,5]  -1
    u[2,5]    mccormick3[2,5]  -1
    u[2,6]    primal_lower  33
    u[2,6]    mccormick1[2,6]  -1
    u[2,6]    mccormick3[2,6]  -1
    u[3,1]    primal_lower  74
    u[3,1]    mccormick1[3,1]  -1
    u[3,1]    mccormick3[3,1]  -1
    u[3,2]    primal_lower  14
    u[3,2]    mccormick1[3,2]  -1
    u[3,2]    mccormick3[3,2]  -1
    u[3,4]    primal_lower  14
    u[3,4]    mccormick1[3,4]  -1
    u[3,4]    mccormick3[3,4]  -1
    u[3,5]    primal_lower  98
    u[3,5]    mccormick1[3,5]  -1
    u[3,5]    mccormick3[3,5]  -1
    u[3,6]    primal_lower  39
    u[3,6]    mccormick1[3,6]  -1
    u[3,6]    mccormick3[3,6]  -1
    u[4,0]    primal_lower  58
    u[4,0]    mccormick1[4,0]  -1
    u[4,0]    mccormick3[4,0]  -1
    u[4,1]    primal_lower  47
    u[4,1]    mccormick1[4,1]  -1
    u[4,1]    mccormick3[4,1]  -1
    u[4,2]    primal_lower  80
    u[4,2]    mccormick1[4,2]  -1
    u[4,2]    mccormick3[4,2]  -1
    u[4,3]    primal_lower  71
    u[4,3]    mccormick1[4,3]  -1
    u[4,3]    mccormick3[4,3]  -1
    u[4,5]    primal_lower  97
    u[4,5]    mccormick1[4,5]  -1
    u[4,5]    mccormick3[4,5]  -1
    u[4,6]    primal_lower  18
    u[4,6]    mccormick1[4,6]  -1
    u[4,6]    mccormick3[4,6]  -1
    u[5,1]    primal_lower  40
    u[5,1]    mccormick1[5,1]  -1
    u[5,1]    mccormick3[5,1]  -1
    u[5,2]    primal_lower  98
    u[5,2]    mccormick1[5,2]  -1
    u[5,2]    mccormick3[5,2]  -1
    u[5,3]    primal_lower  46
    u[5,3]    mccormick1[5,3]  -1
    u[5,3]    mccormick3[5,3]  -1
    u[5,4]    primal_lower  8
    u[5,4]    mccormick1[5,4]  -1
    u[5,4]    mccormick3[5,4]  -1
    u[5,6]    primal_lower  9
    u[5,6]    mccormick1[5,6]  -1
    u[5,6]    mccormick3[5,6]  -1
    u[6,0]    primal_lower  31
    u[6,0]    mccormick1[6,0]  -1
    u[6,0]    mccormick3[6,0]  -1
    u[6,1]    primal_lower  45
    u[6,1]    mccormick1[6,1]  -1
    u[6,1]    mccormick3[6,1]  -1
    u[6,2]    primal_lower  83
    u[6,2]    mccormick1[6,2]  -1
    u[6,2]    mccormick3[6,2]  -1
    u[6,3]    primal_lower  45
    u[6,3]    mccormick1[6,3]  -1
    u[6,3]    mccormick3[6,3]  -1
    u[6,4]    primal_lower  17
    u[6,4]    mccormick1[6,4]  -1
    u[6,4]    mccormick3[6,4]  -1
    u[6,5]    primal_lower  47
    u[6,5]    mccormick1[6,5]  -1
    u[6,5]    mccormick3[6,5]  -1
    r[0,2]    OBJ       6.20322496770833
    r[0,2]    mccormick1[0,2]  1
    r[0,2]    mccormick2[0,2]  1
    r[0,2]    mccormick3[0,2]  1
    r[0,4]    OBJ       6.0108235708594879e+00
    r[0,4]    mccormick1[0,4]  1
    r[0,4]    mccormick2[0,4]  1
    r[0,4]    mccormick3[0,4]  1
    r[0,6]    OBJ       4.3462627624201460e+00
    r[0,6]    mccormick1[0,6]  1
    r[0,6]    mccormick2[0,6]  1
    r[0,6]    mccormick3[0,6]  1
    r[1,3]    OBJ       3.8470768123342687e+00
    r[1,3]    mccormick1[1,3]  1
    r[1,3]    mccormick2[1,3]  1
    r[1,3]    mccormick3[1,3]  1
    r[1,4]    OBJ       4.4777226354476225e+00
    r[1,4]    mccormick1[1,4]  1
    r[1,4]    mccormick2[1,4]  1
    r[1,4]    mccormick3[1,4]  1
    r[1,5]    OBJ       1.2165525060596440e+00
    r[1,5]    mccormick1[1,5]  1
    r[1,5]    mccormick2[1,5]  1
    r[1,5]    mccormick3[1,5]  1
    r[1,6]    OBJ       6.8709533545207542e+00
    r[1,6]    mccormick1[1,6]  1
    r[1,6]    mccormick2[1,6]  1
    r[1,6]    mccormick3[1,6]  1
    r[2,0]    OBJ       6.20322496770833
    r[2,0]    mccormick1[2,0]  1
    r[2,0]    mccormick2[2,0]  1
    r[2,0]    mccormick3[2,0]  1
    r[2,3]    OBJ       4.1109609582188931e+00
    r[2,3]    mccormick1[2,3]  1
    r[2,3]    mccormick2[2,3]  1
    r[2,3]    mccormick3[2,3]  1
    r[2,4]    OBJ       4.4283179650969062e+00
    r[2,4]    mccormick1[2,4]  1
    r[2,4]    mccormick2[2,4]  1
    r[2,4]    mccormick3[2,4]  1
    r[2,5]    OBJ       6.7007462271003817e+00
    r[2,5]    mccormick1[2,5]  1
    r[2,5]    mccormick2[2,5]  1
    r[2,5]    mccormick3[2,5]  1
    r[2,6]    OBJ       2.6627053911388696e+00
    r[2,6]    mccormick1[2,6]  1
    r[2,6]    mccormick2[2,6]  1
    r[2,6]    mccormick3[2,6]  1
    r[3,1]    OBJ       3.8470768123342687e+00
    r[3,1]    mccormick1[3,1]  1
    r[3,1]    mccormick2[3,1]  1
    r[3,1]    mccormick3[3,1]  1
    r[3,2]    OBJ       4.1109609582188931e+00
    r[3,2]    mccormick1[3,2]  1
    r[3,2]    mccormick2[3,2]  1
    r[3,2]    mccormick3[3,2]  1
    r[3,4]    OBJ       1.6031219541881399e+00
    r[3,4]    mccormick1[3,4]  1
    r[3,4]    mccormick2[3,4]  1
    r[3,4]    mccormick3[3,4]  1
    r[3,5]    OBJ       2.6305892875931813e+00
    r[3,5]    mccormick1[3,5]  1
    r[3,5]    mccormick2[3,5]  1
    r[3,5]    mccormick3[3,5]  1
    r[3,6]    OBJ       3.2202484376209237e+00
    r[3,6]    mccormick1[3,6]  1
    r[3,6]    mccormick2[3,6]  1
    r[3,6]    mccormick3[3,6]  1
    r[4,0]    OBJ       6.0108235708594879e+00
    r[4,0]    mccormick1[4,0]  1
    r[4,0]    mccormick2[4,0]  1
    r[4,0]    mccormick3[4,0]  1
    r[4,1]    OBJ       4.4777226354476225e+00
    r[4,1]    mccormick1[4,1]  1
    r[4,1]    mccormick2[4,1]  1
    r[4,1]    mccormick3[4,1]  1
    r[4,2]    OBJ       4.4283179650969062e+00
    r[4,2]    mccormick1[4,2]  1
    r[4,2]    mccormick2[4,2]  1
    r[4,2]    mccormick3[4,2]  1
    r[4,3]    OBJ       1.6031219541881399e+00
    r[4,3]    mccormick1[4,3]  1
    r[4,3]    mccormick2[4,3]  1
    r[4,3]    mccormick3[4,3]  1
    r[4,5]    OBJ       3.3600595232822883e+00
    r[4,5]    mccormick1[4,5]  1
    r[4,5]    mccormick2[4,5]  1
    r[4,5]    mccormick3[4,5]  1
    r[4,6]    OBJ       2.5179356624028344e+00
    r[4,6]    mccormick1[4,6]  1
    r[4,6]    mccormick2[4,6]  1
    r[4,6]    mccormick3[4,6]  1
    r[5,1]    OBJ       1.2165525060596440e+00
    r[5,1]    mccormick1[5,1]  1
    r[5,1]    mccormick2[5,1]  1
    r[5,1]    mccormick3[5,1]  1
    r[5,2]    OBJ       6.7007462271003817e+00
    r[5,2]    mccormick1[5,2]  1
    r[5,2]    mccormick2[5,2]  1
    r[5,2]    mccormick3[5,2]  1
    r[5,3]    OBJ       2.6305892875931813e+00
    r[5,3]    mccormick1[5,3]  1
    r[5,3]    mccormick2[5,3]  1
    r[5,3]    mccormick3[5,3]  1
    r[5,4]    OBJ       3.3600595232822883e+00
    r[5,4]    mccormick1[5,4]  1
    r[5,4]    mccormick2[5,4]  1
    r[5,4]    mccormick3[5,4]  1
    r[5,6]    OBJ       5.6859475903318
    r[5,6]    mccormick1[5,6]  1
    r[5,6]    mccormick2[5,6]  1
    r[5,6]    mccormick3[5,6]  1
    r[6,0]    OBJ       4.3462627624201460e+00
    r[6,0]    mccormick1[6,0]  1
    r[6,0]    mccormick2[6,0]  1
    r[6,0]    mccormick3[6,0]  1
    r[6,1]    OBJ       6.8709533545207542e+00
    r[6,1]    mccormick1[6,1]  1
    r[6,1]    mccormick2[6,1]  1
    r[6,1]    mccormick3[6,1]  1
    r[6,2]    OBJ       2.6627053911388696e+00
    r[6,2]    mccormick1[6,2]  1
    r[6,2]    mccormick2[6,2]  1
    r[6,2]    mccormick3[6,2]  1
    r[6,3]    OBJ       3.2202484376209237e+00
    r[6,3]    mccormick1[6,3]  1
    r[6,3]    mccormick2[6,3]  1
    r[6,3]    mccormick3[6,3]  1
    r[6,4]    OBJ       2.5179356624028344e+00
    r[6,4]    mccormick1[6,4]  1
    r[6,4]    mccormick2[6,4]  1
    r[6,4]    mccormick3[6,4]  1
    r[6,5]    OBJ       5.6859475903318
    r[6,5]    mccormick1[6,5]  1
    r[6,5]    mccormick2[6,5]  1
    r[6,5]    mccormick3[6,5]  1
    MARKER    'MARKER'                 'INTEND'
RHS
    RHS1      flow_cons_source  1
    RHS1      flow_cons_target  1
    RHS1      primal_lower  145
    RHS1      mccormick3[0,2]  -1
    RHS1      mccormick3[0,4]  -1
    RHS1      mccormick3[0,6]  -1
    RHS1      mccormick3[1,3]  -1
    RHS1      mccormick3[1,4]  -1
    RHS1      mccormick3[1,5]  -1
    RHS1      mccormick3[1,6]  -1
    RHS1      mccormick3[2,0]  -1
    RHS1      mccormick3[2,3]  -1
    RHS1      mccormick3[2,4]  -1
    RHS1      mccormick3[2,5]  -1
    RHS1      mccormick3[2,6]  -1
    RHS1      mccormick3[3,1]  -1
    RHS1      mccormick3[3,2]  -1
    RHS1      mccormick3[3,4]  -1
    RHS1      mccormick3[3,5]  -1
    RHS1      mccormick3[3,6]  -1
    RHS1      mccormick3[4,0]  -1
    RHS1      mccormick3[4,1]  -1
    RHS1      mccormick3[4,2]  -1
    RHS1      mccormick3[4,3]  -1
    RHS1      mccormick3[4,5]  -1
    RHS1      mccormick3[4,6]  -1
    RHS1      mccormick3[5,1]  -1
    RHS1      mccormick3[5,2]  -1
    RHS1      mccormick3[5,3]  -1
    RHS1      mccormick3[5,4]  -1
    RHS1      mccormick3[5,6]  -1
    RHS1      mccormick3[6,0]  -1
    RHS1      mccormick3[6,1]  -1
    RHS1      mccormick3[6,2]  -1
    RHS1      mccormick3[6,3]  -1
    RHS1      mccormick3[6,4]  -1
    RHS1      mccormick3[6,5]  -1
BOUNDS
 BV BND1      y[0,2]  
 BV BND1      y[0,4]  
 BV BND1      y[0,6]  
 BV BND1      y[1,3]  
 BV BND1      y[1,4]  
 BV BND1      y[1,5]  
 BV BND1      y[1,6]  
 BV BND1      y[2,0]  
 BV BND1      y[2,3]  
 BV BND1      y[2,4]  
 BV BND1      y[2,5]  
 BV BND1      y[2,6]  
 BV BND1      y[3,1]  
 BV BND1      y[3,2]  
 BV BND1      y[3,4]  
 BV BND1      y[3,5]  
 BV BND1      y[3,6]  
 BV BND1      y[4,0]  
 BV BND1      y[4,1]  
 BV BND1      y[4,2]  
 BV BND1      y[4,3]  
 BV BND1      y[4,5]  
 BV BND1      y[4,6]  
 BV BND1      y[5,1]  
 BV BND1      y[5,2]  
 BV BND1      y[5,3]  
 BV BND1      y[5,4]  
 BV BND1      y[5,6]  
 BV BND1      y[6,0]  
 BV BND1      y[6,1]  
 BV BND1      y[6,2]  
 BV BND1      y[6,3]  
 BV BND1      y[6,4]  
 BV BND1      y[6,5]  
 BV BND1      x[0,2]  
 BV BND1      x[0,4]  
 BV BND1      x[0,6]  
 BV BND1      x[1,3]  
 BV BND1      x[1,4]  
 BV BND1      x[1,5]  
 BV BND1      x[1,6]  
 BV BND1      x[2,0]  
 BV BND1      x[2,3]  
 BV BND1      x[2,4]  
 BV BND1      x[2,5]  
 BV BND1      x[2,6]  
 BV BND1      x[3,1]  
 BV BND1      x[3,2]  
 BV BND1      x[3,4]  
 BV BND1      x[3,5]  
 BV BND1      x[3,6]  
 BV BND1      x[4,0]  
 BV BND1      x[4,1]  
 BV BND1      x[4,2]  
 BV BND1      x[4,3]  
 BV BND1      x[4,5]  
 BV BND1      x[4,6]  
 BV BND1      x[5,1]  
 BV BND1      x[5,2]  
 BV BND1      x[5,3]  
 BV BND1      x[5,4]  
 BV BND1      x[5,6]  
 BV BND1      x[6,0]  
 BV BND1      x[6,1]  
 BV BND1      x[6,2]  
 BV BND1      x[6,3]  
 BV BND1      x[6,4]  
 BV BND1      x[6,5]  
 BV BND1      u[0,2]  
 BV BND1      u[0,4]  
 BV BND1      u[0,6]  
 BV BND1      u[1,3]  
 BV BND1      u[1,4]  
 BV BND1      u[1,5]  
 BV BND1      u[1,6]  
 BV BND1      u[2,0]  
 BV BND1      u[2,3]  
 BV BND1      u[2,4]  
 BV BND1      u[2,5]  
 BV BND1      u[2,6]  
 BV BND1      u[3,1]  
 BV BND1      u[3,2]  
 BV BND1      u[3,4]  
 BV BND1      u[3,5]  
 BV BND1      u[3,6]  
 BV BND1      u[4,0]  
 BV BND1      u[4,1]  
 BV BND1      u[4,2]  
 BV BND1      u[4,3]  
 BV BND1      u[4,5]  
 BV BND1      u[4,6]  
 BV BND1      u[5,1]  
 BV BND1      u[5,2]  
 BV BND1      u[5,3]  
 BV BND1      u[5,4]  
 BV BND1      u[5,6]  
 BV BND1      u[6,0]  
 BV BND1      u[6,1]  
 BV BND1      u[6,2]  
 BV BND1      u[6,3]  
 BV BND1      u[6,4]  
 BV BND1      u[6,5]  
 BV BND1      r[0,2]  
 BV BND1      r[0,4]  
 BV BND1      r[0,6]  
 BV BND1      r[1,3]  
 BV BND1      r[1,4]  
 BV BND1      r[1,5]  
 BV BND1      r[1,6]  
 BV BND1      r[2,0]  
 BV BND1      r[2,3]  
 BV BND1      r[2,4]  
 BV BND1      r[2,5]  
 BV BND1      r[2,6]  
 BV BND1      r[3,1]  
 BV BND1      r[3,2]  
 BV BND1      r[3,4]  
 BV BND1      r[3,5]  
 BV BND1      r[3,6]  
 BV BND1      r[4,0]  
 BV BND1      r[4,1]  
 BV BND1      r[4,2]  
 BV BND1      r[4,3]  
 BV BND1      r[4,5]  
 BV BND1      r[4,6]  
 BV BND1      r[5,1]  
 BV BND1      r[5,2]  
 BV BND1      r[5,3]  
 BV BND1      r[5,4]  
 BV BND1      r[5,6]  
 BV BND1      r[6,0]  
 BV BND1      r[6,1]  
 BV BND1      r[6,2]  
 BV BND1      r[6,3]  
 BV BND1      r[6,4]  
 BV BND1      r[6,5]  
ENDATA
