instances/shortest_path/discrete_knapsack_uncertainty/nohadani_7_11.kp
80337
145

[3.864057671308548 2.128855812887947 2.9710546599665113 0.5585468042462712 3.365089713574328 0.9518591363951727 2.6777881558839276 1.6957007647227749 3.5744860526422473 0.6913271715127617 0.7929094790012261 3.080388028870457 0.5154765551919743 0.7340921433546135 3.2667570929649927 0.6097753061595417 3.0670694510762875 1.6400959446017391 3.1728388064794317 0.19157961331696527 0.7922996040260433 1.6718003255957248 2.0373019025540238 0.5729425163623758 0.4168700444613539 3.051683371760944 0.036379280680546446 3.2626466837148684 3.0283964829185632 0.683602178071044 2.533890621539549 0.650164677372254 3.683789305920384 0.8411318746557646]

[97 2 44 65 78 23 11 57 55 36 17 33 74 14 14 98 39 58 47 80 71 97 18 40 98 46 8 9 31 45 83 45 17 47]
